(set-logic QF_UF)
(declare-fun A0 () Bool)
(declare-fun A1 () Bool)
(declare-fun A2 () Bool)
(declare-fun A3 () Bool)
(declare-fun A4 () Bool)
(declare-fun A5 () Bool)
(declare-fun A6 () Bool)
(declare-fun A7 () Bool)
(declare-fun A8 () Bool)
(declare-fun A10 () Bool)
(declare-fun A11 () Bool)
(declare-fun A12 () Bool)
(declare-fun A13 () Bool)
(declare-fun A14 () Bool)
(declare-fun A15 () Bool)
(declare-fun A16 () Bool)
(declare-fun A17 () Bool)
(declare-fun A18 () Bool)
(declare-fun A19 () Bool)
(declare-fun A20 () Bool)
(declare-fun A22 () Bool)
(declare-fun A23 () Bool)
(declare-fun A24 () Bool)
(assert (let ((.def_0 (and A19 A14))) (let ((.def_1 (not .def_0))) (let ((.def_2 (not A13))) (let ((.def_3 (or .def_2 A6))) (let ((.def_4 (and .def_3 .def_1))) (let ((.def_5 (not .def_4))) (let ((.def_6 (and A22 .def_2))) (let ((.def_7 (not A16))) (let ((.def_8 (and .def_7 A23))) (let ((.def_9 (not .def_8))) (let ((.def_10 (= .def_9 .def_6))) (let ((.def_11 (or .def_10 .def_5))) (let ((.def_12 (not .def_11))) (let ((.def_13 (not A12))) (let ((.def_14 (not A15))) (let ((.def_15 (and .def_14 .def_13))) (let ((.def_16 (not A19))) (let ((.def_17 (not A18))) (let ((.def_18 (and .def_17 .def_16))) (let ((.def_19 (not .def_18))) (let ((.def_20 (or .def_19 .def_15))) (let ((.def_21 (or A24 A15))) (let ((.def_22 (not .def_21))) (let ((.def_23 (not A4))) (let ((.def_24 (or A0 .def_23))) (let ((.def_25 (and .def_24 .def_22))) (let ((.def_26 (or .def_25 .def_20))) (let ((.def_27 (not .def_26))) (let ((.def_28 (and .def_27 .def_12))) (let ((.def_29 (not .def_28))) (let ((.def_30 (not A7))) (let ((.def_31 (not A11))) (let ((.def_32 (and .def_31 .def_30))) (let ((.def_33 (= A7 .def_16))) (let ((.def_34 (or .def_33 .def_32))) (let ((.def_35 (or A17 A7))) (let ((.def_36 (not A24))) (let ((.def_37 (or .def_36 A14))) (let ((.def_38 (not .def_37))) (let ((.def_39 (or .def_38 .def_35))) (let ((.def_40 (or .def_39 .def_34))) (let ((.def_41 (not .def_40))) (let ((.def_42 (not A23))) (let ((.def_43 (and A20 .def_42))) (let ((.def_44 (or A10 A14))) (let ((.def_45 (not .def_44))) (let ((.def_46 (and .def_45 .def_43))) (let ((.def_47 (not .def_46))) (let ((.def_48 (not A20))) (let ((.def_49 (and .def_48 A20))) (let ((.def_50 (not .def_49))) (let ((.def_51 (or .def_14 A10))) (let ((.def_52 (not .def_51))) (let ((.def_53 (or .def_52 .def_50))) (let ((.def_54 (not .def_53))) (let ((.def_55 (or .def_54 .def_47))) (let ((.def_56 (= .def_55 .def_41))) (let ((.def_57 (and .def_56 .def_29))) (let ((.def_58 (and A5 .def_16))) (let ((.def_59 (not .def_58))) (let ((.def_60 (or A8 A1))) (let ((.def_61 (and .def_60 .def_59))) (let ((.def_62 (not .def_61))) (let ((.def_63 (= A22 .def_17))) (let ((.def_64 (not .def_63))) (let ((.def_65 (or A23 .def_42))) (let ((.def_66 (not .def_65))) (let ((.def_67 (= .def_66 .def_64))) (let ((.def_68 (not .def_67))) (let ((.def_69 (or .def_68 .def_62))) (let ((.def_70 (not A0))) (let ((.def_71 (and .def_70 A23))) (let ((.def_72 (not A8))) (let ((.def_73 (or .def_72 .def_13))) (let ((.def_74 (or .def_73 .def_71))) (let ((.def_75 (not .def_74))) (let ((.def_76 (and A2 .def_13))) (let ((.def_77 (or A7 A3))) (let ((.def_78 (not .def_77))) (let ((.def_79 (and .def_78 .def_76))) (let ((.def_80 (not .def_79))) (let ((.def_81 (and .def_80 .def_75))) (let ((.def_82 (or .def_81 .def_69))) (let ((.def_83 (not .def_82))) (let ((.def_84 (and .def_2 A11))) (let ((.def_85 (not .def_84))) (let ((.def_86 (not A1))) (let ((.def_87 (or .def_17 .def_86))) (let ((.def_88 (not .def_87))) (let ((.def_89 (or .def_88 .def_85))) (let ((.def_90 (and A11 .def_14))) (let ((.def_91 (and .def_31 .def_31))) (let ((.def_92 (not .def_91))) (let ((.def_93 (= .def_92 .def_90))) (let ((.def_94 (not .def_93))) (let ((.def_95 (and .def_94 .def_89))) (let ((.def_96 (not .def_95))) (let ((.def_97 (or A19 .def_36))) (let ((.def_98 (not .def_97))) (let ((.def_99 (and .def_17 A12))) (let ((.def_100 (and .def_99 .def_98))) (let ((.def_101 (not A14))) (let ((.def_102 (= .def_101 .def_16))) (let ((.def_103 (not .def_102))) (let ((.def_104 (or .def_86 A2))) (let ((.def_105 (not .def_104))) (let ((.def_106 (or .def_105 .def_103))) (let ((.def_107 (not .def_106))) (let ((.def_108 (and .def_107 .def_100))) (let ((.def_109 (not .def_108))) (let ((.def_110 (and .def_109 .def_96))) (let ((.def_111 (not .def_110))) (let ((.def_112 (and .def_111 .def_83))) (let ((.def_113 (not .def_112))) (let ((.def_114 (and .def_113 .def_57))) (let ((.def_115 (not .def_114))) .def_115)))))))))))))))))))))))))))))))))))))))))))))))))))))))))))))))))))))))))))))))))))))))))))))))))))))))))))))))))))))
(check-sat)
